c read Graph
c width = 227
c time = 666 ms
c width = 22
c time = 1018 ms
c width = 20
c time = 1239 ms
c width = 19
c time = 2523 ms
c width = 18
c time = 2637 ms
c width = 18
c time = 3900 ms
s td 198 19 240
b 1 1 2 17
b 2 2 3 17 18
b 3 14 15 31 32
b 4 3 17 18 33
b 5 14 31 32 48
b 6 193 209 210 226
b 7 208 223 224 239
b 8 193 210 226 227
b 9 208 223 238 239
b 10 3 4 5 20
b 11 3 5 19 20 34 49
b 12 5 19 20 34 36 49 51
b 13 5 20 34 36 49 51 66
b 14 5 20 36 49 51 66 81
b 15 5 20 22 36 37 51 66 81
b 16 5 22 36 37 51 53 66 68 81
b 17 5 22 37 51 53 66 68 81 83
b 18 5 22 37 53 66 68 81 83 98
b 19 5 22 37 39 53 54 68 81 83 98
b 20 5 22 39 53 54 68 71 81 83 87 98 100 102 117
b 21 53 54 68 71 83 85 87 100 102 117
b 22 85 100 101 102 117
b 23 53 54 68 70 71 85 87 102
b 24 53 68 69 70 85
b 25 70 85 86 87 102
b 26 68 83 84 85 100
b 27 5 22 39 54 56 71 81 83 87 98 100 102 117
b 28 39 54 55 56 71
b 29 5 22 39 56 71 81 83 87 98 100 102 117 132 145 147 162
b 30 81 83 98 100 115 117 132 145 147 162
b 31 100 115 116 117 132
b 32 81 98 115 130 132 145 147 162
b 33 130 145 146 147 162
b 34 115 130 131 132 147
b 35 81 98 113 115 130 145
b 36 81 97 98 113
b 37 113 129 130 145
b 38 98 113 114 115 130
b 39 83 98 99 100 115
b 40 5 9 22 26 39 43 56 60 71 73 75 87 90 102 117 132 145 147 162
b 41 9 26 43 56 60 71 73 75 87 90 102 104 105 117 132 145 147 162
b 42 9 26 43 60 75 87 90 102 104 105 117 119 132 145 147 162
b 43 87 102 103 104 119
b 44 9 26 43 60 75 90 102 104 105 117 119 132 134 145 147 162
b 45 102 117 118 119 134
b 46 9 26 43 60 75 90 104 105 117 119 132 134 145 147 149 162
b 47 9 26 43 60 75 90 104 105 119 132 134 145 147 149 162 164
b 48 9 26 43 60 75 90 104 105 119 134 145 147 149 162 164 181 198 213 230
b 49 9 26 43 60 75 90 104 105 119 134 149 164 168 181 183 198 213 230
b 50 9 26 43 60 75 90 104 105 119 134 149 151 164 168 181 183 198 213 230
b 51 134 149 151 164 166 168 181 183 198
b 52 151 166 167 168 183
b 53 149 164 165 166 181
b 54 166 181 182 183 198
b 55 134 149 150 151 166
b 56 145 147 162 164 181 196 198 213 230
b 57 181 196 197 198 213
b 58 145 147 162 164 179 181 196 213 230
b 59 147 162 163 164 179
b 60 164 179 180 181 196
b 61 145 162 179 196 213 228 230
b 62 213 228 229 230
b 63 145 162 177 179 196 213 228
b 64 162 177 179 196 211 213 228
b 65 162 177 179 194 196 211 228
b 66 177 194 211 227 228
b 67 177 193 194 211 227
b 68 193 194 210 211 227
b 69 179 194 195 196 211
b 70 162 177 178 179 194
b 71 196 211 212 213 228
b 72 145 161 162 177
b 73 132 147 148 149 164
b 74 117 132 133 134 149
b 75 56 71 73 87 88 90 104 105
b 76 56 71 72 73 88
b 77 73 88 89 90 105
b 78 5 9 22 26 39 41 43 56 60 73 75 90
b 79 26 41 43 56 58 60 73 75 90
b 80 26 41 42 43 58
b 81 58 73 74 75 90
b 82 43 58 59 60 75
b 83 41 56 57 58 73
b 84 5 9 22 24 26 39 41 56
b 85 5 7 9 22 24 39
b 86 7 22 23 24 39
b 87 7 8 9 24
b 88 5 6 7 22
b 89 24 39 40 41 56
b 90 9 24 25 26 41
b 91 22 37 38 39 54
b 92 66 81 82 83 98
b 93 51 66 67 68 83
b 94 36 51 52 53 68
b 95 5 20 21 22 37
b 96 49 65 66 81
b 97 34 49 50 51 66
b 98 19 34 35 36 51
b 99 3 19 33 34 49
b 100 3 18 19 33 34
b 101 9 26 43 60 75 90 104 105 119 134 151 168 181 183 198 213 230
b 102 9 26 43 60 75 90 104 105 119 134 151 168 183 198 200 213 217 230 234
b 103 183 198 200 213 215 217 230 234
b 104 198 213 214 215 230
b 105 183 198 199 200 215
b 106 200 215 217 230 232 234
b 107 200 215 216 217 232
b 108 215 230 231 232
b 109 217 232 233 234
b 110 9 26 43 60 75 90 104 105 119 122 134 138 151 153 168 183 200 217 234
b 111 9 26 43 60 75 90 92 105 109 122 124 138 139 153 168 183 200 217 234
b 112 9 26 43 60 75 92 109 124 126 138 139 143 153 160 168 183 200 217 234
b 113 9 26 43 60 75 79 92 94 96 109 126 143 160
b 114 79 94 96 109 111 126 143 160
b 115 79 94 95 96 111
b 116 94 109 110 111 126
b 117 96 111 126 128 143 160
b 118 96 111 112 128
b 119 111 126 127 128 143
b 120 128 143 144 160
b 121 9 26 43 60 75 77 79 92 94 96 109
b 122 60 75 76 77 92
b 123 9 13 26 28 43 60 77 79 94 96
b 124 9 11 13 26 28 43
b 125 9 10 11 26
b 126 11 26 27 28 43
b 127 11 12 13 28
b 128 13 28 43 60 62 77 79 94 96
b 129 62 77 78 79 94
b 130 13 28 43 45 60 62 77 79 96
b 131 28 43 44 45 60
b 132 13 28 45 62 64 79 96
b 133 13 28 45 47 62 64 79
b 134 13 28 30 45 47 62 64
b 135 30 45 46 47 62
b 136 13 28 29 30 45
b 137 13 30 47 48 64
b 138 13 14 30 47 48
b 139 14 30 31 47 48
b 140 47 62 63 64 79
b 141 64 79 80 96
b 142 45 60 61 62 77
b 143 77 92 93 94 109
b 144 109 124 126 138 139 143 153 155 160 168 172 183 187 200 202 217 234
b 145 138 153 155 168 170 172 183 187 200 202 217
b 146 155 170 171 172 187
b 147 153 168 170 183 185 187 200 202 217
b 148 185 200 201 202 217
b 149 153 168 169 170 185
b 150 168 183 184 185 200
b 151 170 185 186 187 202
b 152 138 153 154 155 170
b 153 109 124 126 139 143 155 158 160 172 173 187 202 217 234
b 154 109 124 126 139 141 143 155 158 172 173
b 155 126 141 142 143 158
b 156 109 124 125 126 141
b 157 124 139 141 155 156 158 172 173
b 158 124 139 140 141 156
b 159 141 156 157 158 173
b 160 143 158 160 172 173 187 202 217 219 234
b 161 202 217 218 219 234
b 162 143 158 160 172 173 187 202 204 219 234
b 163 187 202 203 204 219
b 164 143 158 160 172 173 187 189 204 219 234
b 165 143 158 160 173 175 189 204 219 234
b 166 158 160 173 175 189 190 204 219 234
b 167 158 173 174 175 190
b 168 160 175 189 190 204 219 234 236
b 169 160 175 189 190 204 219 221 236
b 170 160 175 189 190 204 206 221 236
b 171 160 175 190 192 206 221 236
b 172 175 190 192 206 207 221 236
b 173 192 206 207 221 236 238
b 174 221 236 237 238
b 175 192 206 207 221 222 238
b 176 192 207 208 222 238
b 177 207 208 222 223 238
b 178 175 190 191 192 207
b 179 160 175 176 192
b 180 189 204 205 206 221
b 181 204 219 220 221 236
b 182 219 234 235 236
b 183 143 158 159 160 175
b 184 172 187 188 189 204
b 185 75 90 92 105 107 109 122 124 139
b 186 75 90 91 92 107
b 187 92 107 108 109 124
b 188 90 105 106 107 122
b 189 107 122 123 124 139
b 190 104 105 119 122 134 136 138 151 153 168
b 191 104 105 119 121 122 136 138 153
b 192 104 119 120 121 136
b 193 121 136 137 138 153
b 194 136 151 152 153 168
b 195 119 134 135 136 151
b 196 224 239 240
b 197 209 225 226
b 198 15 16 32
1 2
2 4
3 198
3 5
4 100
5 139
6 197
6 8
7 196
7 9
8 68
9 177
10 11
11 99
11 12
12 98
12 13
13 97
13 14
14 96
14 15
15 95
15 16
16 94
16 17
17 93
17 18
18 92
18 19
19 91
19 20
20 27
20 21
21 26
21 22
21 23
23 24
23 25
27 29
27 28
29 40
29 30
30 39
30 31
30 32
32 33
32 34
32 35
35 36
35 37
35 38
40 78
40 41
41 75
41 42
42 44
42 43
44 46
44 45
46 74
46 47
47 73
47 48
48 56
48 49
49 50
50 101
50 51
51 54
51 55
51 52
51 53
56 58
56 57
58 60
58 61
58 59
61 62
61 63
63 72
63 64
64 71
64 65
65 66
65 70
65 69
66 67
67 68
75 76
75 77
78 84
78 79
79 80
79 83
79 82
79 81
84 90
84 89
84 85
85 88
85 87
85 86
99 100
101 102
102 103
102 110
103 105
103 106
103 104
106 107
106 108
106 109
110 111
110 190
111 185
111 112
112 144
112 113
113 114
113 121
114 116
114 117
114 115
117 118
117 120
117 119
121 122
121 123
121 143
123 124
123 128
124 125
124 127
124 126
128 129
128 130
130 131
130 142
130 132
132 141
132 133
133 140
133 134
134 137
134 136
134 135
137 138
138 139
144 145
144 153
145 147
145 152
145 146
147 150
147 149
147 148
147 151
153 154
153 160
154 156
154 155
154 157
157 158
157 159
160 161
160 162
162 163
162 164
164 184
164 165
165 183
165 166
166 167
166 168
168 182
168 169
169 181
169 170
170 180
170 171
171 179
171 172
172 178
172 173
173 174
173 175
175 176
176 177
185 186
185 187
185 188
185 189
190 191
190 194
190 195
191 193
191 192
